1179
1   1   125  97   0 82 47 49 36 46 45 17 0
1   2   24   41   0 40 53 58 0
1   3   70   87   0 73 56 67 23 75 0
1   4   101  98   0 26 76 77 79 78 34 24 21 0
1   5   32   89   0 59 96 94 13 0
1   6   63   91   0 95 92 37 42 41 22 74 72 0
1   7   40   96   0 87 100 85 97 0
1   8   87   100  0 2 57 15 43 14 38 86 0
2   1   88   98   0 89 61 16 44 91 98 27 69 0
2   2   50   84   0 62 10 32 30 70 0
2   3   97   98   0 80 54 55 25 39 4 28 0
2   4   82   100  0 6 99 93 84 8 48 7 88 0
2   5   60   88   0 52 60 5 83 18 31 0
2   6   85   96   0 9 71 65 35 81 33 0
2   7   65   100  0 12 68 29 3 50 1 0
2   8   110  95   0 51 20 66 90 63 64 11 19 0